NAME 40_5_25_8
ROWS
 N COST
 L LK0
 L LK1
 L LK2
 L LK3
 L LK4
 L FK0
 L FK1
 L FK2
 L FK3
 L FK4
COLUMNS
 X0 COST -7.
 X0 LK0 -2.
 X0 LK1 -3.
 X0 LK2 -5.
 X0 LK3 -4.
 X0 LK4 3.
 X0 FK0 0.
 X0 FK1 1.
 X0 FK2 1.
 X0 FK3 1.
 X0 FK4 1.
 X1 COST -6.
 X1 LK0 -5.
 X1 LK1 0.
 X1 LK2 -2.
 X1 LK3 -5.
 X1 LK4 -2.
 X1 FK0 0.
 X1 FK1 0.
 X1 FK2 1.
 X1 FK3 0.
 X1 FK4 1.
 X2 COST 6.
 X2 LK0 -1.
 X2 LK1 -1.
 X2 LK2 -5.
 X2 LK3 -5.
 X2 LK4 -1.
 X2 FK0 1.
 X2 FK1 1.
 X2 FK2 0.
 X2 FK3 1.
 X2 FK4 0.
 X3 COST -3.
 X3 LK0 0.
 X3 LK1 -5.
 X3 LK2 5.
 X3 LK3 3.
 X3 LK4 2.
 X3 FK0 1.
 X3 FK1 0.
 X3 FK2 1.
 X3 FK3 0.
 X3 FK4 0.
 X4 COST -7.
 X4 LK0 0.
 X4 LK1 -2.
 X4 LK2 5.
 X4 LK3 5.
 X4 LK4 -5.
 X4 FK0 1.
 X4 FK1 1.
 X4 FK2 1.
 X4 FK3 0.
 X4 FK4 1.
 X5 COST -8.
 X5 LK0 -1.
 X5 LK1 4.
 X5 LK2 3.
 X5 LK3 -2.
 X5 LK4 -1.
 X5 FK0 1.
 X5 FK1 1.
 X5 FK2 0.
 X5 FK3 0.
 X5 FK4 1.
 X6 COST -10.
 X6 LK0 -4.
 X6 LK1 -1.
 X6 LK2 5.
 X6 LK3 1.
 X6 LK4 0.
 X6 FK0 0.
 X6 FK1 1.
 X6 FK2 0.
 X6 FK3 1.
 X6 FK4 0.
 X7 COST 0.
 X7 LK0 5.
 X7 LK1 4.
 X7 LK2 -1.
 X7 LK3 -2.
 X7 LK4 2.
 X7 FK0 1.
 X7 FK1 0.
 X7 FK2 0.
 X7 FK3 0.
 X7 FK4 0.
 X8 COST -2.
 X8 LK0 -3.
 X8 LK1 -5.
 X8 LK2 0.
 X8 LK3 -3.
 X8 LK4 -1.
 X8 FK0 0.
 X8 FK1 0.
 X8 FK2 1.
 X8 FK3 1.
 X8 FK4 0.
 X9 COST 3.
 X9 LK0 1.
 X9 LK1 -3.
 X9 LK2 5.
 X9 LK3 4.
 X9 LK4 5.
 X9 FK0 1.
 X9 FK1 0.
 X9 FK2 0.
 X9 FK3 0.
 X9 FK4 1.
 X10 COST 0.
 X10 LK0 3.
 X10 LK1 5.
 X10 LK2 -4.
 X10 LK3 0.
 X10 LK4 -5.
 X10 FK0 0.
 X10 FK1 0.
 X10 FK2 0.
 X10 FK3 1.
 X10 FK4 0.
 X11 COST 9.
 X11 LK0 1.
 X11 LK1 2.
 X11 LK2 4.
 X11 LK3 -1.
 X11 LK4 4.
 X11 FK0 1.
 X11 FK1 0.
 X11 FK2 1.
 X11 FK3 0.
 X11 FK4 1.
 X12 COST -10.
 X12 LK0 5.
 X12 LK1 2.
 X12 LK2 -4.
 X12 LK3 0.
 X12 LK4 3.
 X12 FK0 1.
 X12 FK1 0.
 X12 FK2 0.
 X12 FK3 1.
 X12 FK4 0.
 X13 COST -3.
 X13 LK0 -4.
 X13 LK1 5.
 X13 LK2 -1.
 X13 LK3 -1.
 X13 LK4 -5.
 X13 FK0 0.
 X13 FK1 1.
 X13 FK2 0.
 X13 FK3 0.
 X13 FK4 0.
 X14 COST -8.
 X14 LK0 5.
 X14 LK1 5.
 X14 LK2 0.
 X14 LK3 -3.
 X14 LK4 -5.
 X14 FK0 1.
 X14 FK1 0.
 X14 FK2 0.
 X14 FK3 1.
 X14 FK4 0.
 X15 COST -9.
 X15 LK0 0.
 X15 LK1 4.
 X15 LK2 4.
 X15 LK3 -1.
 X15 LK4 -1.
 X15 FK0 1.
 X15 FK1 1.
 X15 FK2 0.
 X15 FK3 0.
 X15 FK4 0.
 X16 COST -1.
 X16 LK0 2.
 X16 LK1 -2.
 X16 LK2 -5.
 X16 LK3 -2.
 X16 LK4 1.
 X16 FK0 1.
 X16 FK1 0.
 X16 FK2 0.
 X16 FK3 1.
 X16 FK4 1.
 X17 COST -6.
 X17 LK0 2.
 X17 LK1 3.
 X17 LK2 -1.
 X17 LK3 -3.
 X17 LK4 -5.
 X17 FK0 1.
 X17 FK1 1.
 X17 FK2 0.
 X17 FK3 1.
 X17 FK4 0.
 X18 COST -2.
 X18 LK0 5.
 X18 LK1 0.
 X18 LK2 -1.
 X18 LK3 4.
 X18 LK4 0.
 X18 FK0 1.
 X18 FK1 0.
 X18 FK2 1.
 X18 FK3 1.
 X18 FK4 1.
 X19 COST 1.
 X19 LK0 -1.
 X19 LK1 -3.
 X19 LK2 5.
 X19 LK3 -4.
 X19 LK4 -3.
 X19 FK0 0.
 X19 FK1 1.
 X19 FK2 0.
 X19 FK3 0.
 X19 FK4 0.
 X20 COST 6.
 X20 LK0 -1.
 X20 LK1 5.
 X20 LK2 3.
 X20 LK3 -4.
 X20 LK4 2.
 X20 FK0 1.
 X20 FK1 0.
 X20 FK2 0.
 X20 FK3 0.
 X20 FK4 0.
 X21 COST 10.
 X21 LK0 -1.
 X21 LK1 5.
 X21 LK2 -2.
 X21 LK3 3.
 X21 LK4 3.
 X21 FK0 0.
 X21 FK1 0.
 X21 FK2 0.
 X21 FK3 0.
 X21 FK4 0.
 X22 COST 6.
 X22 LK0 -1.
 X22 LK1 -4.
 X22 LK2 -2.
 X22 LK3 1.
 X22 LK4 -3.
 X22 FK0 0.
 X22 FK1 0.
 X22 FK2 1.
 X22 FK3 0.
 X22 FK4 1.
 X23 COST 1.
 X23 LK0 3.
 X23 LK1 -3.
 X23 LK2 -4.
 X23 LK3 4.
 X23 LK4 -4.
 X23 FK0 0.
 X23 FK1 1.
 X23 FK2 1.
 X23 FK3 0.
 X23 FK4 1.
 X24 COST 10.
 X24 LK0 -1.
 X24 LK1 1.
 X24 LK2 -4.
 X24 LK3 -1.
 X24 LK4 0.
 X24 FK0 0.
 X24 FK1 0.
 X24 FK2 0.
 X24 FK3 0.
 X24 FK4 0.
 X25 COST 9.
 X25 LK0 1.
 X25 LK1 0.
 X25 LK2 -4.
 X25 LK3 2.
 X25 LK4 -1.
 X25 FK0 1.
 X25 FK1 1.
 X25 FK2 0.
 X25 FK3 0.
 X25 FK4 1.
 X26 COST -6.
 X26 LK0 -1.
 X26 LK1 5.
 X26 LK2 5.
 X26 LK3 0.
 X26 LK4 -3.
 X26 FK0 1.
 X26 FK1 1.
 X26 FK2 0.
 X26 FK3 0.
 X26 FK4 0.
 X27 COST 10.
 X27 LK0 3.
 X27 LK1 -3.
 X27 LK2 5.
 X27 LK3 3.
 X27 LK4 -4.
 X27 FK0 1.
 X27 FK1 1.
 X27 FK2 1.
 X27 FK3 1.
 X27 FK4 1.
 X28 COST 9.
 X28 LK0 -4.
 X28 LK1 5.
 X28 LK2 -3.
 X28 LK3 -1.
 X28 LK4 1.
 X28 FK0 0.
 X28 FK1 1.
 X28 FK2 1.
 X28 FK3 0.
 X28 FK4 0.
 X29 COST 6.
 X29 LK0 2.
 X29 LK1 -3.
 X29 LK2 -4.
 X29 LK3 -2.
 X29 LK4 -4.
 X29 FK0 1.
 X29 FK1 1.
 X29 FK2 0.
 X29 FK3 1.
 X29 FK4 0.
 X30 COST 3.
 X30 LK0 2.
 X30 LK1 0.
 X30 LK2 -3.
 X30 LK3 0.
 X30 LK4 -5.
 X30 FK0 1.
 X30 FK1 0.
 X30 FK2 0.
 X30 FK3 1.
 X30 FK4 0.
 X31 COST -7.
 X31 LK0 -2.
 X31 LK1 -2.
 X31 LK2 3.
 X31 LK3 2.
 X31 LK4 -2.
 X31 FK0 0.
 X31 FK1 1.
 X31 FK2 1.
 X31 FK3 0.
 X31 FK4 1.
 X32 COST 3.
 X32 LK0 -2.
 X32 LK1 3.
 X32 LK2 4.
 X32 LK3 3.
 X32 LK4 -5.
 X32 FK0 1.
 X32 FK1 1.
 X32 FK2 0.
 X32 FK3 0.
 X32 FK4 0.
 X33 COST 2.
 X33 LK0 -4.
 X33 LK1 -5.
 X33 LK2 1.
 X33 LK3 2.
 X33 LK4 -3.
 X33 FK0 0.
 X33 FK1 1.
 X33 FK2 1.
 X33 FK3 1.
 X33 FK4 1.
 X34 COST 1.
 X34 LK0 0.
 X34 LK1 -4.
 X34 LK2 -2.
 X34 LK3 0.
 X34 LK4 0.
 X34 FK0 0.
 X34 FK1 1.
 X34 FK2 0.
 X34 FK3 0.
 X34 FK4 0.
 X35 COST 6.
 X35 LK0 -3.
 X35 LK1 1.
 X35 LK2 -1.
 X35 LK3 0.
 X35 LK4 -3.
 X35 FK0 0.
 X35 FK1 1.
 X35 FK2 1.
 X35 FK3 1.
 X35 FK4 0.
 X36 COST 6.
 X36 LK0 5.
 X36 LK1 -3.
 X36 LK2 0.
 X36 LK3 0.
 X36 LK4 -5.
 X36 FK0 1.
 X36 FK1 1.
 X36 FK2 0.
 X36 FK3 0.
 X36 FK4 0.
 X37 COST 6.
 X37 LK0 -1.
 X37 LK1 -3.
 X37 LK2 3.
 X37 LK3 -3.
 X37 LK4 -4.
 X37 FK0 1.
 X37 FK1 1.
 X37 FK2 1.
 X37 FK3 1.
 X37 FK4 1.
 X38 COST 5.
 X38 LK0 5.
 X38 LK1 -2.
 X38 LK2 1.
 X38 LK3 -5.
 X38 LK4 -1.
 X38 FK0 0.
 X38 FK1 0.
 X38 FK2 0.
 X38 FK3 1.
 X38 FK4 1.
 X39 COST -2.
 X39 LK0 3.
 X39 LK1 2.
 X39 LK2 -2.
 X39 LK3 -2.
 X39 LK4 5.
 X39 FK0 1.
 X39 FK1 1.
 X39 FK2 0.
 X39 FK3 0.
 X39 FK4 1.
 Y0 COST 8.
 Y0 LK0 1.
 Y0 LK1 0.
 Y0 LK2 0.
 Y0 LK3 0.
 Y0 LK4 0.
 Y0 FK0 -3.
 Y0 FK1 1.
 Y0 FK2 -3.
 Y0 FK3 -5.
 Y0 FK4 3.
 Y1 COST 4.
 Y1 LK0 0.
 Y1 LK1 0.
 Y1 LK2 1.
 Y1 LK3 1.
 Y1 LK4 1.
 Y1 FK0 -1.
 Y1 FK1 3.
 Y1 FK2 3.
 Y1 FK3 -1.
 Y1 FK4 1.
 Y2 COST 8.
 Y2 LK0 0.
 Y2 LK1 1.
 Y2 LK2 1.
 Y2 LK3 0.
 Y2 LK4 0.
 Y2 FK0 1.
 Y2 FK1 -5.
 Y2 FK2 1.
 Y2 FK3 3.
 Y2 FK4 0.
 Y3 COST 3.
 Y3 LK0 0.
 Y3 LK1 1.
 Y3 LK2 0.
 Y3 LK3 0.
 Y3 LK4 0.
 Y3 FK0 -2.
 Y3 FK1 3.
 Y3 FK2 -3.
 Y3 FK3 3.
 Y3 FK4 4.
 Y4 COST -7.
 Y4 LK0 0.
 Y4 LK1 0.
 Y4 LK2 1.
 Y4 LK3 0.
 Y4 LK4 0.
 Y4 FK0 0.
 Y4 FK1 -5.
 Y4 FK2 3.
 Y4 FK3 -5.
 Y4 FK4 -1.
 Y5 COST -2.
 Y5 LK0 0.
 Y5 LK1 0.
 Y5 LK2 1.
 Y5 LK3 0.
 Y5 LK4 0.
 Y5 FK0 2.
 Y5 FK1 5.
 Y5 FK2 -4.
 Y5 FK3 -4.
 Y5 FK4 -5.
 Y6 COST 3.
 Y6 LK0 1.
 Y6 LK1 0.
 Y6 LK2 1.
 Y6 LK3 1.
 Y6 LK4 0.
 Y6 FK0 1.
 Y6 FK1 -1.
 Y6 FK2 5.
 Y6 FK3 4.
 Y6 FK4 5.
 Y7 COST 2.
 Y7 LK0 1.
 Y7 LK1 1.
 Y7 LK2 1.
 Y7 LK3 1.
 Y7 LK4 1.
 Y7 FK0 1.
 Y7 FK1 -2.
 Y7 FK2 1.
 Y7 FK3 -5.
 Y7 FK4 5.
 Y8 COST -3.
 Y8 LK0 0.
 Y8 LK1 0.
 Y8 LK2 1.
 Y8 LK3 0.
 Y8 LK4 1.
 Y8 FK0 -3.
 Y8 FK1 2.
 Y8 FK2 -3.
 Y8 FK3 -4.
 Y8 FK4 3.
 Y9 COST -1.
 Y9 LK0 1.
 Y9 LK1 0.
 Y9 LK2 0.
 Y9 LK3 1.
 Y9 LK4 0.
 Y9 FK0 2.
 Y9 FK1 2.
 Y9 FK2 2.
 Y9 FK3 -3.
 Y9 FK4 -5.
 Y10 COST -1.
 Y10 LK0 0.
 Y10 LK1 1.
 Y10 LK2 1.
 Y10 LK3 0.
 Y10 LK4 0.
 Y10 FK0 4.
 Y10 FK1 1.
 Y10 FK2 -4.
 Y10 FK3 3.
 Y10 FK4 -4.
 Y11 COST -2.
 Y11 LK0 1.
 Y11 LK1 0.
 Y11 LK2 1.
 Y11 LK3 1.
 Y11 LK4 0.
 Y11 FK0 -5.
 Y11 FK1 1.
 Y11 FK2 -1.
 Y11 FK3 3.
 Y11 FK4 3.
 Y12 COST -2.
 Y12 LK0 0.
 Y12 LK1 1.
 Y12 LK2 0.
 Y12 LK3 0.
 Y12 LK4 0.
 Y12 FK0 2.
 Y12 FK1 0.
 Y12 FK2 1.
 Y12 FK3 -2.
 Y12 FK4 -2.
 Y13 COST -5.
 Y13 LK0 1.
 Y13 LK1 0.
 Y13 LK2 0.
 Y13 LK3 0.
 Y13 LK4 0.
 Y13 FK0 4.
 Y13 FK1 3.
 Y13 FK2 4.
 Y13 FK3 -4.
 Y13 FK4 4.
 Y14 COST -3.
 Y14 LK0 0.
 Y14 LK1 0.
 Y14 LK2 0.
 Y14 LK3 0.
 Y14 LK4 1.
 Y14 FK0 -2.
 Y14 FK1 -5.
 Y14 FK2 -5.
 Y14 FK3 -4.
 Y14 FK4 -2.
 Y15 COST -8.
 Y15 LK0 1.
 Y15 LK1 1.
 Y15 LK2 1.
 Y15 LK3 0.
 Y15 LK4 1.
 Y15 FK0 1.
 Y15 FK1 4.
 Y15 FK2 1.
 Y15 FK3 -4.
 Y15 FK4 1.
 Y16 COST -8.
 Y16 LK0 1.
 Y16 LK1 1.
 Y16 LK2 0.
 Y16 LK3 1.
 Y16 LK4 1.
 Y16 FK0 -5.
 Y16 FK1 4.
 Y16 FK2 -1.
 Y16 FK3 1.
 Y16 FK4 -2.
 Y17 COST 5.
 Y17 LK0 0.
 Y17 LK1 1.
 Y17 LK2 1.
 Y17 LK3 0.
 Y17 LK4 0.
 Y17 FK0 -4.
 Y17 FK1 -5.
 Y17 FK2 3.
 Y17 FK3 1.
 Y17 FK4 2.
 Y18 COST -4.
 Y18 LK0 1.
 Y18 LK1 1.
 Y18 LK2 1.
 Y18 LK3 0.
 Y18 LK4 0.
 Y18 FK0 -2.
 Y18 FK1 -1.
 Y18 FK2 3.
 Y18 FK3 5.
 Y18 FK4 -5.
 Y19 COST -4.
 Y19 LK0 0.
 Y19 LK1 1.
 Y19 LK2 1.
 Y19 LK3 0.
 Y19 LK4 1.
 Y19 FK0 2.
 Y19 FK1 -3.
 Y19 FK2 4.
 Y19 FK3 1.
 Y19 FK4 -2.
 Y20 COST 2.
 Y20 LK0 1.
 Y20 LK1 1.
 Y20 LK2 0.
 Y20 LK3 1.
 Y20 LK4 0.
 Y20 FK0 -5.
 Y20 FK1 -1.
 Y20 FK2 -3.
 Y20 FK3 -1.
 Y20 FK4 4.
 Y21 COST 5.
 Y21 LK0 1.
 Y21 LK1 0.
 Y21 LK2 1.
 Y21 LK3 1.
 Y21 LK4 0.
 Y21 FK0 3.
 Y21 FK1 3.
 Y21 FK2 2.
 Y21 FK3 3.
 Y21 FK4 -4.
 Y22 COST 1.
 Y22 LK0 1.
 Y22 LK1 1.
 Y22 LK2 1.
 Y22 LK3 1.
 Y22 LK4 1.
 Y22 FK0 2.
 Y22 FK1 1.
 Y22 FK2 -2.
 Y22 FK3 0.
 Y22 FK4 2.
 Y23 COST -4.
 Y23 LK0 0.
 Y23 LK1 1.
 Y23 LK2 0.
 Y23 LK3 0.
 Y23 LK4 0.
 Y23 FK0 2.
 Y23 FK1 3.
 Y23 FK2 -3.
 Y23 FK3 -4.
 Y23 FK4 -3.
 Y24 COST -10.
 Y24 LK0 1.
 Y24 LK1 1.
 Y24 LK2 1.
 Y24 LK3 0.
 Y24 LK4 1.
 Y24 FK0 2.
 Y24 FK1 -4.
 Y24 FK2 4.
 Y24 FK3 -3.
 Y24 FK4 -5.
 Y25 COST -6.
 Y25 LK0 0.
 Y25 LK1 0.
 Y25 LK2 1.
 Y25 LK3 0.
 Y25 LK4 0.
 Y25 FK0 0.
 Y25 FK1 -5.
 Y25 FK2 -1.
 Y25 FK3 2.
 Y25 FK4 -1.
 Y26 COST 4.
 Y26 LK0 1.
 Y26 LK1 0.
 Y26 LK2 1.
 Y26 LK3 0.
 Y26 LK4 1.
 Y26 FK0 -1.
 Y26 FK1 -1.
 Y26 FK2 -1.
 Y26 FK3 5.
 Y26 FK4 -2.
 Y27 COST 5.
 Y27 LK0 1.
 Y27 LK1 1.
 Y27 LK2 0.
 Y27 LK3 1.
 Y27 LK4 0.
 Y27 FK0 -2.
 Y27 FK1 0.
 Y27 FK2 4.
 Y27 FK3 5.
 Y27 FK4 3.
 Y28 COST 3.
 Y28 LK0 1.
 Y28 LK1 0.
 Y28 LK2 0.
 Y28 LK3 1.
 Y28 LK4 1.
 Y28 FK0 -2.
 Y28 FK1 -5.
 Y28 FK2 -5.
 Y28 FK3 -3.
 Y28 FK4 -1.
 Y29 COST 10.
 Y29 LK0 1.
 Y29 LK1 0.
 Y29 LK2 0.
 Y29 LK3 1.
 Y29 LK4 1.
 Y29 FK0 -3.
 Y29 FK1 -4.
 Y29 FK2 -5.
 Y29 FK3 1.
 Y29 FK4 -1.
 Y30 COST -3.
 Y30 LK0 0.
 Y30 LK1 0.
 Y30 LK2 0.
 Y30 LK3 1.
 Y30 LK4 0.
 Y30 FK0 4.
 Y30 FK1 2.
 Y30 FK2 1.
 Y30 FK3 -3.
 Y30 FK4 -1.
 Y31 COST -3.
 Y31 LK0 0.
 Y31 LK1 0.
 Y31 LK2 1.
 Y31 LK3 0.
 Y31 LK4 0.
 Y31 FK0 1.
 Y31 FK1 -3.
 Y31 FK2 5.
 Y31 FK3 0.
 Y31 FK4 -1.
 Y32 COST -7.
 Y32 LK0 0.
 Y32 LK1 1.
 Y32 LK2 0.
 Y32 LK3 0.
 Y32 LK4 1.
 Y32 FK0 0.
 Y32 FK1 3.
 Y32 FK2 0.
 Y32 FK3 4.
 Y32 FK4 1.
 Y33 COST 7.
 Y33 LK0 0.
 Y33 LK1 1.
 Y33 LK2 0.
 Y33 LK3 0.
 Y33 LK4 1.
 Y33 FK0 -1.
 Y33 FK1 -3.
 Y33 FK2 4.
 Y33 FK3 -5.
 Y33 FK4 1.
 Y34 COST -5.
 Y34 LK0 1.
 Y34 LK1 1.
 Y34 LK2 0.
 Y34 LK3 1.
 Y34 LK4 1.
 Y34 FK0 4.
 Y34 FK1 1.
 Y34 FK2 -5.
 Y34 FK3 1.
 Y34 FK4 0.
 Y35 COST 8.
 Y35 LK0 0.
 Y35 LK1 0.
 Y35 LK2 0.
 Y35 LK3 0.
 Y35 LK4 0.
 Y35 FK0 -4.
 Y35 FK1 -4.
 Y35 FK2 3.
 Y35 FK3 -3.
 Y35 FK4 2.
 Y36 COST -4.
 Y36 LK0 0.
 Y36 LK1 0.
 Y36 LK2 1.
 Y36 LK3 0.
 Y36 LK4 1.
 Y36 FK0 0.
 Y36 FK1 -2.
 Y36 FK2 0.
 Y36 FK3 -3.
 Y36 FK4 2.
 Y37 COST 8.
 Y37 LK0 1.
 Y37 LK1 1.
 Y37 LK2 0.
 Y37 LK3 1.
 Y37 LK4 1.
 Y37 FK0 -3.
 Y37 FK1 -2.
 Y37 FK2 -1.
 Y37 FK3 4.
 Y37 FK4 3.
 Y38 COST -4.
 Y38 LK0 1.
 Y38 LK1 0.
 Y38 LK2 1.
 Y38 LK3 0.
 Y38 LK4 0.
 Y38 FK0 -2.
 Y38 FK1 -5.
 Y38 FK2 -3.
 Y38 FK3 1.
 Y38 FK4 5.
 Y39 COST -5.
 Y39 LK0 1.
 Y39 LK1 0.
 Y39 LK2 1.
 Y39 LK3 0.
 Y39 LK4 0.
 Y39 FK0 1.
 Y39 FK1 5.
 Y39 FK2 2.
 Y39 FK3 -5.
 Y39 FK4 -3.
RHS
 RHS LK0 8.
 RHS LK1 6.
 RHS LK2 6.
 RHS LK3 0.
 RHS LK4 -8.
 RHS FK0 3.
 RHS FK1 1.
 RHS FK2 5.
 RHS FK3 -1.
 RHS FK4 5.
BOUNDS
 UI BOUND	X0	1.
 LI BOUND	X0	0.
 UI BOUND	X1	1.
 LI BOUND	X1	0.
 UI BOUND	X2	1.
 LI BOUND	X2	0.
 UI BOUND	X3	1.
 LI BOUND	X3	0.
 UI BOUND	X4	1.
 LI BOUND	X4	0.
 UI BOUND	X5	1.
 LI BOUND	X5	0.
 UI BOUND	X6	1.
 LI BOUND	X6	0.
 UI BOUND	X7	1.
 LI BOUND	X7	0.
 UI BOUND	X8	1.
 LI BOUND	X8	0.
 UI BOUND	X9	1.
 LI BOUND	X9	0.
 UI BOUND	X10	1.
 LI BOUND	X10	0.
 UI BOUND	X11	1.
 LI BOUND	X11	0.
 UI BOUND	X12	1.
 LI BOUND	X12	0.
 UI BOUND	X13	1.
 LI BOUND	X13	0.
 UI BOUND	X14	1.
 LI BOUND	X14	0.
 UI BOUND	X15	1.
 LI BOUND	X15	0.
 UI BOUND	X16	1.
 LI BOUND	X16	0.
 UI BOUND	X17	1.
 LI BOUND	X17	0.
 UI BOUND	X18	1.
 LI BOUND	X18	0.
 UI BOUND	X19	1.
 LI BOUND	X19	0.
 UI BOUND	X20	1.
 LI BOUND	X20	0.
 UI BOUND	X21	1.
 LI BOUND	X21	0.
 UI BOUND	X22	1.
 LI BOUND	X22	0.
 UI BOUND	X23	1.
 LI BOUND	X23	0.
 UI BOUND	X24	1.
 LI BOUND	X24	0.
 UI BOUND	X25	1.
 LI BOUND	X25	0.
 UI BOUND	X26	1.
 LI BOUND	X26	0.
 UI BOUND	X27	1.
 LI BOUND	X27	0.
 UI BOUND	X28	1.
 LI BOUND	X28	0.
 UI BOUND	X29	1.
 LI BOUND	X29	0.
 UI BOUND	X30	1.
 LI BOUND	X30	0.
 UI BOUND	X31	1.
 LI BOUND	X31	0.
 UI BOUND	X32	1.
 LI BOUND	X32	0.
 UI BOUND	X33	1.
 LI BOUND	X33	0.
 UI BOUND	X34	1.
 LI BOUND	X34	0.
 UI BOUND	X35	1.
 LI BOUND	X35	0.
 UI BOUND	X36	1.
 LI BOUND	X36	0.
 UI BOUND	X37	1.
 LI BOUND	X37	0.
 UI BOUND	X38	1.
 LI BOUND	X38	0.
 UI BOUND	X39	1.
 LI BOUND	X39	0.
 UI BOUND	Y0	1.
 LI BOUND	Y0	0.
 UI BOUND	Y1	1.
 LI BOUND	Y1	0.
 UI BOUND	Y2	1.
 LI BOUND	Y2	0.
 UI BOUND	Y3	1.
 LI BOUND	Y3	0.
 UI BOUND	Y4	1.
 LI BOUND	Y4	0.
 UI BOUND	Y5	1.
 LI BOUND	Y5	0.
 UI BOUND	Y6	1.
 LI BOUND	Y6	0.
 UI BOUND	Y7	1.
 LI BOUND	Y7	0.
 UI BOUND	Y8	1.
 LI BOUND	Y8	0.
 UI BOUND	Y9	1.
 LI BOUND	Y9	0.
 UI BOUND	Y10	1.
 LI BOUND	Y10	0.
 UI BOUND	Y11	1.
 LI BOUND	Y11	0.
 UI BOUND	Y12	1.
 LI BOUND	Y12	0.
 UI BOUND	Y13	1.
 LI BOUND	Y13	0.
 UI BOUND	Y14	1.
 LI BOUND	Y14	0.
 UI BOUND	Y15	1.
 LI BOUND	Y15	0.
 UI BOUND	Y16	1.
 LI BOUND	Y16	0.
 UI BOUND	Y17	1.
 LI BOUND	Y17	0.
 UI BOUND	Y18	1.
 LI BOUND	Y18	0.
 UI BOUND	Y19	1.
 LI BOUND	Y19	0.
 UI BOUND	Y20	1.
 LI BOUND	Y20	0.
 UI BOUND	Y21	1.
 LI BOUND	Y21	0.
 UI BOUND	Y22	1.
 LI BOUND	Y22	0.
 UI BOUND	Y23	1.
 LI BOUND	Y23	0.
 UI BOUND	Y24	1.
 LI BOUND	Y24	0.
 UI BOUND	Y25	1.
 LI BOUND	Y25	0.
 UI BOUND	Y26	1.
 LI BOUND	Y26	0.
 UI BOUND	Y27	1.
 LI BOUND	Y27	0.
 UI BOUND	Y28	1.
 LI BOUND	Y28	0.
 UI BOUND	Y29	1.
 LI BOUND	Y29	0.
 UI BOUND	Y30	1.
 LI BOUND	Y30	0.
 UI BOUND	Y31	1.
 LI BOUND	Y31	0.
 UI BOUND	Y32	1.
 LI BOUND	Y32	0.
 UI BOUND	Y33	1.
 LI BOUND	Y33	0.
 UI BOUND	Y34	1.
 LI BOUND	Y34	0.
 UI BOUND	Y35	1.
 LI BOUND	Y35	0.
 UI BOUND	Y36	1.
 LI BOUND	Y36	0.
 UI BOUND	Y37	1.
 LI BOUND	Y37	0.
 UI BOUND	Y38	1.
 LI BOUND	Y38	0.
 UI BOUND	Y39	1.
 LI BOUND	Y39	0.
ENDATA
